23186
1,92,6,49,90,63,47,91,98,23,45,32,11,15,17,59,74,21,72,10,84,36,99,38,24,18,79,53,88,16,94,22,70,66,26,65,4,19,75,97,56,80,31,89,42,8,67,69,61,25,81,85,68,50,73,44,64,40,54,2,82,95,13,76,33,37,5,52,78,96,39,30,48,14,100,71,41,43,3,46,29,34,83,55,12,27,35,86,20,7,9,57,87,51,62,60,77,58,28,93,1
